%chk=H8_R1p3000_RHF_STO3G.chk
%mem=4GB
%nprocshared=4
#p RHF/STO-3G SCF=(Tight,XQC,MaxCycle=512) NoSymm Pop=Full

Linear H8, R=1.3000 Angstrom, RHF/STO-3G

0 1
H   0.0000000000   0.0000000000  -4.5500000000
H   0.0000000000   0.0000000000  -3.2500000000
H   0.0000000000   0.0000000000  -1.9500000000
H   0.0000000000   0.0000000000  -0.6500000000
H   0.0000000000   0.0000000000   0.6500000000
H   0.0000000000   0.0000000000   1.9500000000
H   0.0000000000   0.0000000000   3.2500000000
H   0.0000000000   0.0000000000   4.5500000000

